W=6;
H=5;

MAX_TIME=12;
MAX_TRACKS=9;

TARGET=(5,6);

TRAINS=[(5,3,LEFT),(3,4,TOP)];
DECOYS=[];

INIT_POS=[
(3,2,ROCK),
(3,3,ROCK),
(3,4,STRAIGHT_TD),
(4,4,STRAIGHT_TD),
(5,3,STRAIGHT_RL),
(5,5,STRAIGHT_RL),
(5,6,STRAIGHT_RL),
];
TUNNEL_PAIRS=[];

GATES=[
(4,4,1,false),
];
ACTIVATIONS=[
(5,5,1),
];

DSWITCHES=[];

STATIONS=[];

SEMAPHORE_SUPPLY=0;
